c turning on binary mode checking
c parsing input formula with 259840 variables and 1039919 clauses
c finished parsing, read 2532535 bytes from proof file
c detected empty clause; start verification via backward checking
c 748 of 1039919 clauses in core                            
c 224 of 101680 lemmas in core using 4332 resolution steps
c 0 RAT lemmas in core; 5 redundant literals in core lemmas
s VERIFIED
c verification time: 1.094 seconds
